Argumentos: 
./solver.release -i 21 -t 86400 -a 7 -h 86400 -w Testes/Mvic-i21 -m modeloCom2345.mod -o modeloCom2345.mod 
Seed: 1622416830
hidden-TXT/Sc-n110w4.txt
hidden-TXT/H0-n110w4-0.txt
hidden-TXT/WD-n110w4-1.txt hidden-TXT/WD-n110w4-4.txt hidden-TXT/WD-n110w4-2.txt hidden-TXT/WD-n110w4-8.txt 
Reading model section from modeloCom2345.mod...
367 lines were read
Reading data section from Testes/Mvic-i21/21.dat...
19773 lines were read
Generating obj...
Generating H1turnoDia...
Generating H2coberturaMinima...
Generating H3AsucessaoTurnos...
Generating H3BsucessaoTurnos...
Generating H4qualificacao...
Generating S1coberturaOtima...
Generating S2d...
Generating S2dHist...
Generating S2b...
Generating S2bHist...
Generating aux1S2a...
Generating auxS2a...
Generating aux3S2a...
Generating aux4S2a...
Generating s2aMin2...
Generating s2aHistMin2...
Generating s2aMin3...
Generating s2aHistMin3h1...
Generating s2aHistMin3h2...
Generating s2aMin4...
Generating s2aHistMin4h1...
Generating s2aHistMin4h2...
Generating s2aHistMin4h3...
Generating s2aMin5...
Generating s2aHistMin5h1...
Generating s2aHistMin5h2...
Generating s2aHistMin5h3...
Generating s2aHistMin5h4...
Generating auxS2b...
Generating aux1S2b...
Generating aux3S2b...
Generating aux4S2b...
Generating s2b...
Generating s2bHist...
Generating s2bMin3turnos...
Generating s2bHistMin3h1turnos...
Generating s2bHistMin3h2turnos...
Generating s2bMin4...
Generating s2bHistMin4h1...
Generating s2bHistMin4h2...
Generating s2bHistMin4h3...
Generating s2bMin5...
Generating s2bHistMin5h1...
Generating s2bHistMin5h2...
Generating s2bHistMin5h3...
Generating s2bHistMin5h34...
Generating auxS5...
Generating S6a...
Generating S6b...
Generating auxS7...
Generating S7...
Model has been successfully generated
Writing problem data to `Testes/Mvic-i21/21.lp'...
716484 lines were written
CPX0000  Tried aggregator 2 times.
CPX0000  MIP Presolve eliminated 24314 rows and 51863 columns.
CPX0000  MIP Presolve modified 5959 coefficients.
CPX0000  Aggregator did 334 substitutions.
CPX0000  Reduced MIP has 69407 rows, 79101 columns, and 531297 nonzeros.
CPX0000  Reduced MIP has 78460 binaries, 641 generals, 0 SOSs, and 0 indicators.
CPX0000  Presolve time = 1.27 sec. (593.61 ticks)
CPX0000  Found incumbent of value 1507925.000000 after 4.27 sec. (1968.42 ticks)
[1m[30m[ZEN] [0m00:00:04 [1m[34m1507925.00[1m[32m  100.00%
[0mCPX0000  Probing time = 0.15 sec. (49.45 ticks)
CPX0000  Tried aggregator 2 times.
CPX0000  MIP Presolve eliminated 16 rows and 16 columns.
CPX0000  Aggregator did 1 substitutions.
CPX0000  Reduced MIP has 69390 rows, 79084 columns, and 531263 nonzeros.
CPX0000  Reduced MIP has 78443 binaries, 641 generals, 0 SOSs, and 0 indicators.
CPX0000  Presolve time = 0.72 sec. (379.42 ticks)
CPX0000  Probing time = 0.07 sec. (20.81 ticks)
CPX0000  Clique table members: 16874.
CPX0000  MIP emphasis: balance optimality and feasibility.
CPX0000  MIP search method: dynamic search.
CPX0000  Parallel mode: none, using 1 thread.
CPX0000  Root relaxation solution time = 385.85 sec. (77676.91 ticks)
CPX0000
CPX0000          Nodes                                         Cuts/
CPX0000     Node  Left     Objective  IInf  Best Integer    Best Bound    ItCnt     Gap
CPX0000
CPX0000  *     0+    0                      1507925.0000        0.0000    71293  100.00%
CPX0000        0     0      871.4499  7601  1507925.0000      871.4499    71293   99.94%
CPX0000        0     0     1050.5628  7641  1507925.0000    Cuts: 3777   122708   99.93%
CPX0000        0     0     1153.3365  7900  1507925.0000    Cuts: 3294   181136   99.92%
CPX0000        0     0     1179.1268  8438  1507925.0000    Cuts: 2853   232903   99.92%
CPX0000  *     0+    0                       327600.0000     1179.1268   232903   99.64%
[1m[30m[ZEN] [0m00:32:02 [1m[34m 327600.00[1m[32m   99.64%
[0mCPX0000        0     0     1184.8772  8961   327600.0000    Cuts: 2810   286029   99.64%
CPX0000        0     0     1188.0328  8704   327600.0000    Cuts: 2849   346215   99.64%
CPX0000        0     0     1193.7408  8936   327600.0000    Cuts: 2766   405403   99.64%
CPX0000        0     0     1209.2414  8880   327600.0000    Cuts: 2778   470736   99.63%
CPX0000        0     0     1237.5300  8875   327600.0000    Cuts: 2791   533758   99.62%
CPX0000        0     0     1251.0101  9083   327600.0000    Cuts: 2883   604732   99.62%
CPX0000        0     0     1258.3992  9444   327600.0000    Cuts: 2885   675134   99.62%
CPX0000        0     0     1268.2487  9221   327600.0000    Cuts: 2677   736719   99.61%
CPX0000        0     0     1272.9776  9638   327600.0000    Cuts: 2766   793078   99.61%
CPX0000        0     0     1279.5583  9274   327600.0000    Cuts: 2682   858161   99.61%
CPX0000        0     0     1288.7440  9816   327600.0000    Cuts: 2784   920273   99.61%
CPX0000        0     0     1300.9590 10160   327600.0000    Cuts: 2886   984719   99.60%
CPX0000        0     0     1310.2585  9779   327600.0000    Cuts: 2842  1052252   99.60%
CPX0000        0     0     1318.7132 10260   327600.0000    Cuts: 3064  1117836   99.60%
CPX0000        0     0     1332.7700  9790   327600.0000    Cuts: 2905  1184357   99.59%
CPX0000        0     0     1349.3264  9768   327600.0000    Cuts: 2996  1254308   99.59%
CPX0000        0     0     1364.7831 10373   327600.0000    Cuts: 3054  1328996   99.58%
CPX0000        0     0     1375.8885 10640   327600.0000    Cuts: 3038  1394516   99.58%
CPX0000        0     0     1385.4762 10145   327600.0000    Cuts: 3096  1461330   99.58%
CPX0000        0     0     1397.0820 10157   327600.0000    Cuts: 3013  1527488   99.57%
CPX0000        0     0     1407.5179 10303   327600.0000    Cuts: 2970  1597581   99.57%
CPX0000        0     0     1417.9977 10484   327600.0000    Cuts: 3004  1691396   99.57%
CPX0000        0     0     1442.5497 10189   327600.0000    Cuts: 2975  1760053   99.56%
CPX0000        0     0     1451.4191 10350   327600.0000    Cuts: 2937  1839089   99.56%
CPX0000        0     0     1464.3776 10406   327600.0000    Cuts: 3100  1912513   99.55%
CPX0000        0     0     1478.1782 10485   327600.0000    Cuts: 2930  1980088   99.55%
CPX0000        0     0     1485.5749 10793   327600.0000    Cuts: 2867  2056795   99.55%
CPX0000        0     0     1498.4017 10279   327600.0000    Cuts: 3099  2148587   99.54%
CPX0000        0     0     1507.5617 10213   327600.0000    Cuts: 3026  2226428   99.54%
CPX0000        0     0     1519.3362 10308   327600.0000    Cuts: 3282  2297567   99.54%
CPX0000        0     0     1527.5178 10406   327600.0000    Cuts: 3040  2369299   99.53%
CPX0000        0     0     1536.9005 10681   327600.0000    Cuts: 2999  2447406   99.53%
CPX0000        0     0     1548.8868 10683   327600.0000    Cuts: 2974  2515271   99.53%
CPX0000        0     0     1563.5976 10580   327600.0000    Cuts: 2961  2584352   99.52%
CPX0000        0     0     1575.4572 10669   327600.0000    Cuts: 2885  2653051   99.52%
CPX0000        0     0     1583.1276 10377   327600.0000    Cuts: 2960  2719258   99.52%
CPX0000        0     0     1591.1597 10582   327600.0000    Cuts: 2849  2784175   99.51%
CPX0000        0     0     1599.7778 10650   327600.0000    Cuts: 2923  2853074   99.51%
CPX0000        0     0     1610.6321 10700   327600.0000    Cuts: 3048  2922688   99.51%
CPX0000        0     0     1617.7575 11125   327600.0000    Cuts: 3121  2997751   99.51%
CPX0000        0     0     1621.6961 11075   327600.0000    Cuts: 3049  3063029   99.50%
CPX0000        0     0     1627.7991 10652   327600.0000    Cuts: 2653  3124641   99.50%
CPX0000        0     0     1638.3855 11177   327600.0000    Cuts: 3016  3195983   99.50%
CPX0000        0     0     1650.8887 10876   327600.0000    Cuts: 2952  3270105   99.50%
CPX0000        0     0     1662.9525 10653   327600.0000    Cuts: 2944  3349936   99.49%
CPX0000        0     0     1666.9242 10823   327600.0000    Cuts: 3364  3423122   99.49%
CPX0000        0     0     1674.3499 10604   327600.0000    Cuts: 2799  3499131   99.49%
CPX0000        0     0     1682.3529 10716   327600.0000    Cuts: 2909  3570538   99.49%
CPX0000        0     0     1686.0223 10914   327600.0000    Cuts: 3171  3644893   99.49%
CPX0000        0     0     1689.5280 10796   327600.0000    Cuts: 2991  3725964   99.48%
CPX0000        0     0     1692.7717 10970   327600.0000    Cuts: 3013  3794386   99.48%
CPX0000        0     0     1697.8671 10854   327600.0000    Cuts: 2947  3871322   99.48%
CPX0000        0     0     1706.6493 10951   327600.0000    Cuts: 2871  3947682   99.48%
CPX0000        0     0     1712.2460 11157   327600.0000    Cuts: 3121  4060012   99.48%
CPX0000        0     0     1719.7393 10835   327600.0000    Cuts: 3205  4132274   99.48%
CPX0000        0     0     1728.1179 10878   327600.0000    Cuts: 2870  4203038   99.47%
CPX0000        0     0     1739.4198 10686   327600.0000    Cuts: 2956  4311581   99.47%
CPX0000        0     0     1744.0279 11063   327600.0000    Cuts: 2982  4379757   99.47%
CPX0000        0     0     1752.6952 10837   327600.0000    Cuts: 2810  4456535   99.46%
CPX0000        0     0     1758.8509 10502   327600.0000    Cuts: 2956  4560751   99.46%
CPX0000        0     0     1764.3854 10680   327600.0000    Cuts: 2977  4644563   99.46%
CPX0000        0     0     1772.2620 10981   327600.0000    Cuts: 2890  4718029   99.46%
CPX0000        0     0     1776.4881 10753   327600.0000    Cuts: 3052  4797830   99.46%
CPX0000        0     0     1779.1098 10582   327600.0000    Cuts: 2708  4872018   99.46%
CPX0000        0     0     1782.8249 10297   327600.0000    Cuts: 2942  4949512   99.46%
CPX0000        0     0     1786.6198 10472   327600.0000    Cuts: 2961  5019969   99.45%
CPX0000        0     0     1788.4976 10792   327600.0000    Cuts: 2916  5097684   99.45%
CPX0000        0     0     1796.1062 10395   327600.0000    Cuts: 2774  5173702   99.45%
CPX0000        0     0     1798.8762 10209   327600.0000    Cuts: 2736  5245923   99.45%
CPX0000        0     0     1802.3026 10067   327600.0000    Cuts: 2697  5321546   99.45%
CPX0000        0     0     1810.9745  9643   327600.0000    Cuts: 2571  5398090   99.45%
CPX0000        0     0     1820.4005 10113   327600.0000    Cuts: 3232  5473819   99.44%
CPX0000        0     0     1824.2699 10010   327600.0000    Cuts: 2926  5551671   99.44%
CPX0000        0     0     1830.7368 10175   327600.0000    Cuts: 2722  5619554   99.44%
CPX0000        0     0     1835.1071 10088   327600.0000    Cuts: 3054  5696277   99.44%
CPX0000        0     0     1842.4270 10149   327600.0000    Cuts: 2743  5766092   99.44%
CPX0000        0     0     1850.1105 10198   327600.0000    Cuts: 2819  5833099   99.44%
CPX0000        0     0     1854.4349 10281   327600.0000    Cuts: 2652  5902941   99.43%
CPX0000        0     0     1859.0080 10409   327600.0000    Cuts: 3030  5972742   99.43%
CPX0000        0     0     1864.2948 10434   327600.0000    Cuts: 2635  6042991   99.43%
CPX0000        0     0     1872.5369 10409   327600.0000    Cuts: 2509  6108766   99.43%
CPX0000        0     0     1879.6310 10437   327600.0000    Cuts: 2855  6176188   99.43%
CPX0000        0     0     1881.6973 10254   327600.0000    Cuts: 2623  6253965   99.43%
CPX0000        0     0     1883.6735 10191   327600.0000    Cuts: 2788  6327166   99.43%
CPX0000        0     0     1886.0811 10600   327600.0000    Cuts: 2901  6409163   99.42%
CPX0000        0     0     1898.2542 10759   327600.0000    Cuts: 2695  6476492   99.42%
CPX0000        0     0     1901.0944 10797   327600.0000    Cuts: 2651  6546672   99.42%
CPX0000        0     0     1903.2841 10513   327600.0000    Cuts: 2785  6617247   99.42%
CPX0000        0     0     1908.9419 10430   327600.0000    Cuts: 2771  6688871   99.42%
CPX0000        0     0     1914.8858 10251   327600.0000    Cuts: 2765  6759320   99.42%
CPX0000        0     0     1922.0575 10576   327600.0000    Cuts: 2427  6826898   99.41%
CPX0000        0     0     1926.0021 10118   327600.0000    Cuts: 2491  6895705   99.41%
CPX0000        0     0     1928.6645 10215   327600.0000    Cuts: 2822  6962138   99.41%
CPX0000        0     0     1931.1752 10253   327600.0000    Cuts: 3092  7030839   99.41%
CPX0000        0     0     1934.6341 10134   327600.0000    Cuts: 2666  7113181   99.41%
CPX0000        0     0     1937.0526 10248   327600.0000    Cuts: 2542  7187860   99.41%
CPX0000        0     0     1938.1257  9771   327600.0000    Cuts: 2529  7257867   99.41%
CPX0000        0     0     1940.9057 10070   327600.0000    Cuts: 2344  7330514   99.41%
CPX0000        0     0     1944.2696  9946   327600.0000    Cuts: 2634  7402206   99.41%
CPX0000        0     0     1947.7382 10166   327600.0000    Cuts: 2717  7472360   99.41%
CPX0000        0     0     1950.2043 10081   327600.0000    Cuts: 2471  7546167   99.40%
CPX0000        0     0     1955.6714  9889   327600.0000    Cuts: 2428  7639609   99.40%
CPX0000        0     0     1957.4188 10230   327600.0000    Cuts: 2636  7716073   99.40%
CPX0000        0     0     1958.6429  8349   327600.0000     Cuts: 581  7776065   99.40%
CPX0000        0     0     1960.4117  9509   327600.0000    Cuts: 3704  7849843   99.40%
CPX0000  Heuristic still looking.
CPX0000  Heuristic still looking.
CPX0000  Heuristic still looking.
CPX0000  *     0+    0                         7515.0000     1960.4117  7849843   73.91%
[1m[30m[ZEN] [0m23:50:28 [1m[34m   7515.00[1m[32m   73.91%
[0mCPX0000        0     2     1960.4117  7180     7515.0000     1960.4447  7849843   73.91%
CPX0000  Elapsed time = 85828.44 sec. (20987168.06 ticks, tree = 0.00 MB
CPX0000        1     3     1969.4977  7077     7515.0000     1960.4711  7866236   73.91%
CPX0000        2     4     1965.3029  6775     7515.0000     1965.3029  7878392   73.85%
CPX0000        3     5     1965.3029  6789     7515.0000     1965.3029  7879775   73.85%
CPX0000        4     6     1965.3029  6842     7515.0000     1965.3029  7892248   73.85%
CPX0000        5     7     1965.3674  6768     7515.0000     1965.3029  7912784   73.85%
CPX0000        6     8     1965.3674  6878     7515.0000     1965.3029  7947165   73.85%
CPX0000
CPX0000  GUB cover cuts applied:  495
CPX0000  Clique cuts applied:  539
CPX0000  Cover cuts applied:  3
CPX0000  Implied bound cuts applied:  13
CPX0000  Flow cuts applied:  3
CPX0000  Mixed integer rounding cuts applied:  70
CPX0000  Zero-half cuts applied:  4772
CPX0000  Lift and project cuts applied:  2
CPX0000  Gomory fractional cuts applied:  26
CPX0000
CPX0000  Root node processing (before b&c):
CPX0000    Real time             = 85828.30 sec. (20987086.81 ticks)
CPX0000  Sequential b&c:
CPX0000    Real time             =  571.75 sec. (135953.08 ticks)
CPX0000                            ------------
CPX0000  Total (root+branch&cut) = 86400.05 sec. (21123039.89 ticks)
H2 understaffing: 0
H3 shiftTypeSuccessions: 0
S1 optimalCoverage: 1080
S2a consecutiveShift: 345 = (23,0 )
S2b consecutiveWorkingDays: 660 = ( 21,1 )
S3 consecutiveDaysOff: 2010 = ( 6,61 )
S4 preferences: 200
S5 completeWeekend: 60
S6 totalAssignments: 3100
S7 totalWorkingWeekeends: 60
 

Cost Solution: 7515

       |M|T|W|T|F|S|S| |M|T|W|T|F|S|S| |M|T|W|T|F|S|S| |M|T|W|T|F|S|S|
------------------------------------------------------------------------
HN_0   |D|D|D|D|-|-|-| |N|N|N|N|-|-|-| |-|N|N|N|N|-|-| |-|-|L|L|L|L|L|
HN_1   |N|N|N|N|-|-|-| |-|-|-|-|L|L|L| |L|L|-|-|-|-|-| |-|D|D|-|-|-|-|
HN_2   |-|-|-|L|L|-|-| |-|-|E|E|-|-|-| |-|-|-|L|L|-|-| |-|-|-|E|E|E|L|
HN_3   |E|E|E|L|L|-|-| |E|E|L|L|L|-|-| |E|-|-|-|D|D|D| |D|-|-|D|D|D|N|
HN_4   |-|-|-|-|-|-|-| |L|L|L|-|-|-|-| |L|L|L|-|-|-|-| |L|L|L|L|L|-|-|
HN_5   |-|-|-|-|-|-|-| |L|L|L|L|L|-|-| |-|-|-|-|-|-|-| |N|N|N|N|N|-|-|
HN_6   |-|E|E|L|L|L|L| |-|-|-|E|N|N|N| |-|-|-|-|-|-|-| |N|N|N|N|N|-|-|
HN_7   |L|L|L|L|L|-|-| |-|-|D|D|E|E|D| |D|-|-|-|L|L|L| |L|-|-|-|-|-|-|
HN_8   |-|N|N|N|N|-|-| |-|D|D|D|D|-|-| |-|-|D|D|N|N|N| |N|-|-|-|-|E|E|
HN_9   |-|-|-|-|E|E|D| |D|D|-|-|-|-|-| |-|-|D|D|D|-|-| |-|-|D|D|D|-|-|
HN_10  |-|E|E|D|D|-|-| |-|-|L|L|L|L|L| |-|-|-|E|E|E|E| |E|L|L|-|-|-|-|
HN_11  |-|L|L|-|-|-|-| |D|D|-|-|-|-|-| |-|E|E|-|-|-|D| |D|D|-|-|-|-|-|
HN_12  |-|N|N|N|N|-|-| |-|-|D|D|D|-|-| |-|-|-|L|L|L|L| |-|-|-|-|-|-|-|
HN_13  |N|-|-|-|E|E|E| |E|-|-|-|-|D|D| |D|E|E|-|-|-|-| |E|E|E|E|E|-|-|
HN_14  |N|N|N|N|N|-|-| |-|-|N|N|N|N|-| |L|L|L|-|-|-|-| |-|N|N|N|N|-|-|
HN_15  |E|-|-|-|-|N|N| |N|N|N|-|-|-|-| |N|N|N|N|-|-|-| |L|L|L|L|L|-|-|
HN_16  |D|D|D|D|D|-|-| |E|E|E|E|E|-|-| |N|N|N|N|-|-|-| |E|E|E|-|-|N|N|
HN_17  |-|L|L|L|-|-|-| |L|L|L|-|-|-|-| |-|E|E|E|-|-|-| |-|-|-|-|D|D|L|
HN_18  |L|L|L|-|-|-|-| |N|N|N|N|N|-|-| |D|D|D|D|D|-|-| |E|E|E|E|E|-|-|
HN_19  |D|D|D|D|-|-|-| |E|E|E|D|D|E|E| |-|-|-|-|-|-|-| |D|D|D|D|-|-|-|
NU_20  |E|E|E|E|E|-|-| |-|-|-|-|D|D|E| |E|-|-|-|-|-|-| |-|N|N|N|N|-|-|
NU_21  |D|D|D|D|D|-|-| |D|D|D|D|D|-|-| |-|-|N|N|N|N|N| |-|-|D|D|E|E|E|
NU_22  |L|L|-|-|E|E|E| |-|-|D|D|D|-|-| |N|N|N|N|N|-|-| |D|D|D|-|-|D|D|
NU_23  |-|-|-|-|-|L|L| |L|L|-|-|-|-|-| |D|D|D|D|-|-|-| |E|E|E|-|-|-|-|
NU_24  |E|-|-|-|-|-|-| |-|E|E|E|E|-|-| |-|-|-|-|-|-|-| |N|N|N|N|N|-|-|
NU_25  |-|-|-|-|D|D|D| |-|-|-|-|-|-|-| |D|D|D|D|-|-|-| |-|D|D|E|E|-|-|
NU_26  |-|-|L|L|L|-|-| |N|N|N|N|N|-|-| |E|E|-|-|N|N|N| |N|-|-|-|-|-|-|
NU_27  |L|-|-|-|-|-|-| |-|D|D|-|-|-|-| |N|N|N|N|-|-|L| |L|-|-|D|D|L|L|
NU_28  |-|-|L|L|L|-|-| |-|-|N|N|N|N|N| |-|-|-|-|-|-|-| |N|N|N|N|N|-|-|
NU_29  |N|-|-|-|N|N|N| |N|N|-|-|-|D|D| |D|L|L|-|-|-|-| |L|L|L|L|-|-|-|
NU_30  |-|E|E|E|E|-|-| |-|-|-|-|-|-|-| |-|-|-|-|D|D|D| |L|L|-|-|-|-|-|
NU_31  |E|E|-|-|-|-|-| |E|E|E|E|E|-|-| |-|-|-|D|D|D|D| |-|-|-|-|-|-|-|
NU_32  |D|-|-|N|N|N|N| |-|-|L|L|L|-|-| |-|L|L|L|L|-|-| |D|D|E|E|E|-|-|
NU_33  |E|E|E|E|E|-|-| |E|E|E|E|E|-|-| |D|D|D|L|L|-|-| |L|L|L|-|-|D|D|
NU_34  |N|N|N|-|D|D|-| |-|D|D|-|-|-|-| |-|-|D|D|-|-|-| |-|-|E|E|-|-|-|
NU_35  |N|N|-|-|-|D|D| |D|D|D|D|D|-|-| |-|-|-|-|L|L|L| |L|L|-|-|-|-|-|
NU_36  |D|D|D|-|-|-|-| |-|-|L|L|L|-|-| |-|-|-|-|E|E|E| |E|E|-|-|-|-|-|
NU_37  |-|-|-|-|-|D|D| |D|-|-|-|-|-|-| |D|D|D|E|E|-|-| |-|-|E|E|E|-|-|
NU_38  |N|N|N|N|-|-|-| |N|N|N|N|N|-|-| |L|L|L|-|N|N|N| |N|-|-|L|L|L|N|
NU_39  |-|N|N|N|N|-|-| |-|E|E|E|E|-|-| |-|-|D|D|E|E|E| |E|-|-|-|E|E|E|
CT_40  |L|L|L|L|L|-|-| |E|E|E|-|-|-|-| |-|-|-|D|D|-|-| |L|L|-|-|-|-|-|
CT_41  |L|L|L|-|-|-|-| |E|E|-|-|-|-|-| |-|E|E|L|L|-|-| |-|-|-|-|D|D|-|
CT_42  |L|-|-|E|E|E|E| |-|-|L|L|L|-|-| |L|L|L|L|L|-|-| |L|L|L|L|L|-|-|
CT_43  |-|-|-|-|L|L|-| |-|-|-|-|-|-|D| |D|-|-|-|-|-|-| |E|E|-|-|-|-|-|
CT_44  |-|-|-|-|N|N|N| |N|-|-|-|-|-|-| |E|E|E|E|-|-|-| |-|-|D|D|D|-|-|
CT_45  |D|D|D|D|-|-|-| |D|D|D|D|-|-|-| |D|D|E|E|-|-|-| |-|D|D|D|D|-|-|
CT_46  |-|-|-|D|D|L|L| |-|-|-|-|-|-|-| |N|N|N|N|-|-|-| |-|-|E|E|E|-|-|
CT_47  |-|-|N|N|N|N|N| |-|-|N|N|N|N|N| |-|-|L|L|L|-|-| |N|N|N|N|N|-|-|
CT_48  |-|-|-|-|-|E|E| |E|-|-|-|-|-|-| |E|E|E|E|E|-|-| |-|-|L|L|L|-|-|
CT_49  |N|N|N|N|N|-|-| |E|E|D|D|D|-|-| |-|-|N|N|N|N|N| |-|-|-|-|N|N|N|
CT_50  |D|D|D|D|D|D|D| |-|-|-|-|-|-|-| |L|L|L|L|-|-|-| |-|D|D|D|D|D|D|
CT_51  |D|-|-|-|-|-|-| |L|L|L|L|-|-|-| |-|-|-|E|E|E|D| |D|-|-|-|-|-|-|
CT_52  |D|D|E|E|E|-|-| |-|-|N|N|N|N|N| |-|-|-|-|D|D|D| |N|N|N|N|-|-|-|
CT_53  |-|L|L|L|-|-|-| |L|L|L|L|L|-|-| |-|-|-|-|D|D|D| |-|-|-|-|-|-|-|
CT_54  |D|D|D|D|D|-|-| |D|D|D|D|D|-|-| |D|D|L|L|L|-|-| |N|N|N|N|N|-|-|
CT_55  |-|-|-|L|L|-|-| |N|N|N|N|N|-|-| |-|L|L|-|-|-|L| |L|-|-|-|-|-|-|
CT_56  |-|-|-|-|-|-|L| |L|-|-|-|-|-|-| |E|E|-|-|-|-|-| |E|E|-|-|-|-|-|
CT_57  |-|-|E|E|E|-|-| |-|-|D|D|D|-|-| |-|-|-|-|D|D|D| |D|D|-|-|-|-|-|
CT_58  |-|-|-|D|D|-|-| |E|E|L|L|L|-|-| |-|-|-|-|N|N|N| |N|-|-|-|-|-|-|
CT_59  |-|D|D|E|E|E|E| |-|-|-|D|-|-|-| |-|E|E|E|E|-|-| |-|E|E|L|L|-|-|
CT_60  |N|N|-|-|-|-|-| |N|-|-|-|-|-|-| |-|-|D|D|D|-|-| |-|-|-|N|N|N|N|
CT_61  |E|-|-|-|-|-|-| |-|L|L|-|-|-|-| |D|D|-|-|-|L|L| |L|-|-|-|-|-|-|
CT_62  |L|L|-|-|D|D|D| |-|-|-|D|D|-|-| |N|N|N|N|N|-|-| |E|E|L|L|L|-|-|
CT_63  |-|N|N|N|N|-|-| |-|N|-|-|-|-|-| |N|N|N|N|N|-|-| |-|-|-|-|-|E|E|
CT_64  |-|-|D|D|-|-|-| |L|L|L|-|-|-|-| |-|-|E|E|E|-|-| |-|L|L|L|-|-|-|
CT_65  |E|E|E|D|D|-|-| |-|N|N|N|N|-|-| |N|N|N|N|-|-|-| |D|D|L|L|L|-|-|
CT_66  |N|N|N|N|N|-|-| |-|-|-|-|-|E|E| |N|N|N|N|N|-|-| |-|-|-|-|-|-|-|
CT_67  |-|-|D|D|-|-|-| |-|-|E|E|-|-|L| |L|-|-|-|-|-|-| |-|D|D|D|D|-|-|
CT_68  |D|D|D|-|-|-|N| |-|-|-|-|-|-|-| |E|E|D|D|D|-|-| |-|N|N|-|-|-|-|
CT_69  |-|-|-|-|-|-|-| |N|N|N|N|-|-|-| |-|-|L|L|L|-|-| |-|-|-|D|D|D|D|
CT_70  |L|L|L|N|N|N|N| |-|-|-|-|L|L|L| |L|L|-|-|-|-|-| |E|E|E|E|E|-|-|
CT_71  |E|E|-|-|-|-|-| |-|-|E|E|-|-|-| |-|-|D|D|-|-|-| |-|-|-|N|N|N|N|
CT_72  |-|-|-|L|L|-|-| |D|D|-|-|E|L|L| |L|-|-|-|-|-|-| |E|E|-|-|-|-|-|
CT_73  |D|E|-|-|-|-|-| |L|L|-|-|-|-|-| |E|E|E|-|-|-|-| |-|-|-|L|L|L|-|
CT_74  |-|L|L|-|-|-|-| |-|-|N|N|N|N|-| |-|-|-|E|E|-|-| |-|-|L|L|-|-|-|
CT_75  |N|N|N|N|-|-|-| |D|D|L|L|L|-|-| |-|-|N|-|-|-|-| |D|D|D|D|D|-|-|
CT_76  |L|-|-|-|L|L|L| |L|-|-|-|E|E|E| |-|-|L|L|L|-|-| |-|N|N|N|N|-|-|
CT_77  |D|D|E|E|E|-|-| |E|E|E|E|E|-|-| |-|-|E|E|E|E|E| |-|-|E|E|E|E|L|
CT_78  |E|-|-|D|D|D|E| |E|-|-|D|D|D|E| |E|-|D|D|D|-|-| |-|N|N|N|N|-|-|
CT_79  |L|L|-|-|-|-|-| |-|L|L|-|-|-|-| |-|-|-|L|L|L|-| |-|-|-|E|E|-|-|
TR_80  |D|D|E|E|E|E|E| |-|-|-|-|-|-|-| |N|N|N|N|-|-|-| |D|D|D|D|-|-|-|
TR_81  |D|D|D|-|-|-|-| |-|L|L|L|-|-|-| |-|-|-|E|L|-|-| |-|-|-|-|D|D|E|
TR_82  |D|D|D|-|-|-|-| |-|-|-|-|-|L|L| |L|L|-|-|-|-|-| |-|-|L|L|L|-|-|
TR_83  |-|N|N|N|N|-|-| |-|D|D|D|D|-|-| |-|-|E|E|D|D|E| |E|-|-|-|E|E|L|
TR_84  |N|N|N|N|-|-|-| |D|D|E|E|-|-|-| |-|L|L|L|L|-|-| |-|L|L|L|L|-|-|
TR_85  |E|E|-|-|-|-|-| |-|-|N|N|N|N|-| |-|-|-|D|D|-|-| |-|-|E|E|-|-|-|
TR_86  |L|L|L|-|-|-|-| |-|-|-|N|N|N|N| |N|-|-|-|-|-|-| |D|D|E|E|E|-|-|
TR_87  |N|N|N|N|-|-|-| |-|N|N|N|N|-|-| |-|-|E|E|E|E|L| |L|L|-|-|-|-|-|
TR_88  |-|-|E|E|E|E|E| |L|L|-|-|-|D|D| |D|D|D|-|-|-|-| |N|N|N|N|-|-|-|
TR_89  |-|-|E|E|E|-|-| |E|E|E|E|E|-|-| |E|E|D|D|D|-|-| |N|N|N|N|N|-|-|
TR_90  |D|-|-|-|-|-|-| |D|D|D|-|-|-|-| |N|N|N|N|N|-|-| |-|-|-|D|D|D|D|
TR_91  |E|E|D|D|D|-|-| |E|E|E|E|E|-|-| |E|E|E|-|-|E|E| |E|-|-|D|D|D|E|
TR_92  |L|L|-|-|-|-|-| |-|-|L|L|-|-|-| |-|-|-|-|L|L|-| |-|-|E|E|-|-|-|
TR_93  |-|-|-|-|N|N|N| |N|N|-|-|-|-|-| |N|N|N|N|N|-|-| |-|-|-|E|E|-|-|
TR_94  |-|-|E|E|E|-|-| |-|-|-|-|-|D|D| |D|-|-|-|-|-|-| |L|L|L|L|L|-|-|
TR_95  |D|D|-|-|-|-|-| |L|L|-|-|-|-|-| |-|L|L|-|-|-|-| |-|-|-|L|L|L|L|
TR_96  |L|L|L|L|L|-|-| |-|D|D|D|D|-|-| |-|E|E|E|E|-|-| |-|E|E|E|E|-|-|
TR_97  |-|-|D|D|D|-|-| |D|D|D|L|L|-|-| |L|L|L|-|-|D|D| |D|D|-|-|N|N|N|
TR_98  |N|-|-|-|-|E|E| |L|L|L|L|L|-|-| |-|D|D|D|L|L|L| |-|-|-|-|-|-|-|
TR_99  |L|-|-|-|D|D|L| |L|L|-|-|-|E|E| |D|D|D|-|-|-|-| |D|D|D|D|-|-|-|
TR_100 |E|-|D|D|D|-|-| |-|-|N|N|N|N|N| |-|-|D|D|D|-|-| |E|E|D|D|D|-|-|
TR_101 |E|E|E|L|L|-|-| |D|D|D|E|E|-|-| |L|L|L|-|-|N|N| |N|N|N|-|-|E|E|
TR_102 |L|-|-|-|-|-|-| |N|N|N|N|N|-|-| |-|-|N|N|N|N|N| |-|-|-|-|-|-|-|
TR_103 |-|-|-|-|L|L|L| |-|-|-|-|-|-|-| |N|N|N|N|N|-|-| |-|L|L|L|-|-|-|
TR_104 |E|E|-|-|N|N|N| |N|N|-|-|D|D|L| |L|-|-|L|L|-|-| |N|N|N|N|N|-|-|
TR_105 |N|N|N|N|-|-|-| |E|E|E|E|-|-|-| |-|-|D|D|E|E|E| |E|E|-|-|-|-|-|
TR_106 |N|N|N|N|N|-|-| |L|L|L|L|L|-|-| |E|E|E|-|-|D|D| |E|E|-|-|N|N|N|
TR_107 |-|-|L|L|L|N|N| |N|N|-|-|-|E|E| |L|L|L|L|-|-|-| |N|N|N|N|-|-|-|
TR_108 |-|-|-|E|E|-|-| |-|-|-|D|D|-|-| |-|-|-|E|E|-|-| |-|-|E|E|-|-|-|
TR_109 |-|-|E|E|D|D|D| |E|E|-|-|-|-|-| |D|D|E|E|-|-|-| |L|L|L|L|-|-|-|


Hard constraint violations
--------------------------

Minimal coverage constraints: 0
Required skill constraints: 0
Illegal shift type succession constraints: 0
Single assignment per day: 0


Cost per constraint type
------------------------

Total assignment constraints: 3100
Consecutive constraints: 1005
Non working days constraints: 2010
Preferences: 200
Max working weekend: 60
Complete weekends: 60
Optimal coverage constraints: 1080

------------------------

Total cost: 7515
